n_res = 4;
rcap = [21, 14, 75, 65];
rtype = [1, 1, 2, 2];
n_tasks = 10;
modes = [ {1, 2, 3}, {4, 5, 6}, {7, 8, 9}, {10, 11, 12}, {13, 14, 15}, {16, 17, 18}, {19, 20, 21}, {22, 23, 24}, {25, 26, 27}, {28, 29, 30} ];
succ = [ {4, 5}, {10}, {5, 7}, {7, 8}, {6}, {8, 9, 10}, {10}, {}, {}, {} ];
n_opt = 30;
dur = [1, 7, 10, 2, 7, 9, 4, 7, 7, 5, 9, 10, 1, 1, 2, 2, 5, 6, 5, 8, 9, 1, 3, 7, 5, 5, 7, 1, 2, 10];
rreq = [|  0,  0,  3,  7,  0,  4,  8,  3,  0,  0,  0,  0, 10,  0,  0,  8,  6,  4, 10,  9,  8,  7,  0,  5, 10,  9,  6,  0,  0,  0
        |  6,  5,  0,  0,  5,  0,  0,  0,  3,  5,  4,  1,  0,  7,  7,  0,  0,  0,  0,  0,  0,  0,  9,  0,  0,  0,  0,  9,  7,  6
        |  8,  0,  4,  0,  0, 10,  0,  0,  6,  5,  3,  1,  3,  6,  0,  0,  0,  8,  0,  9,  8,  0,  6,  0,  5,  7,  0,  0,  0, 10
        |  0,  5,  0,  9,  6,  0, 10, 10,  0,  0,  0,  0,  0,  0,  7,  8,  4,  0,  5,  0,  0,  8,  0,  6,  0,  0,  6,  7,  7,  0 |];
